/*********************************************
 * OPL 12.6.0.0 Data
 * Author: Adrian Rodriguez Bazaga, Pau Rodriguez Esmerats
 * Creation Date: 06/12/2017 at 23:02:53
 *********************************************/

nNurses=63;
maxConsec=2;
maxPresence=7;
maxHours=5;
minHours=1;
hours=24;
demand= [10 13 17 16 13 17 16 14 13 7 0 1 0 1 1 0 1 0 1 0 6 15 10 9  ];
